model.smt2
; SMT-LIBv2 description generated by Yosys 0.56+101 (git sha1 dbb977aa8, aarch64-apple-darwin23.5-clang++ 18.1.8 -fPIC -O3)
; yosys-smt2-stdt
; yosys-smt2-module light
(declare-datatype |light_s| ((|light_mk|
  (|light_is| Bool)
  (|light#0| Bool) ; \clock
  (|light#1| (_ BitVec 1)) ; \light_out
  (|light#2| (_ BitVec 2)) ; \state123
  (|light#3| Bool) ; \up
)))
; yosys-smt2-input clock 1
; yosys-smt2-wire clock 1
; yosys-smt2-clock clock posedge
; yosys-smt2-witness {"offset": 0, "path": ["\\clock"], "smtname": "clock", "smtoffset": 0, "type": "posedge", "width": 1}
; yosys-smt2-witness {"offset": 0, "path": ["\\clock"], "smtname": "clock", "smtoffset": 0, "type": "input", "width": 1}
(define-fun |light_n clock| ((state |light_s|)) Bool (|light#0| state))
; yosys-smt2-witness {"offset": 0, "path": ["\\light_out"], "smtname": 1, "smtoffset": 0, "type": "reg", "width": 1}
; yosys-smt2-output light_out 1
; yosys-smt2-register light_out 1
; yosys-smt2-wire light_out 1
(define-fun |light_n light_out| ((state |light_s|)) Bool (= ((_ extract 0 0) (|light#1| state)) #b1))
; yosys-smt2-witness {"offset": 0, "path": ["\\state123"], "smtname": 2, "smtoffset": 0, "type": "reg", "width": 2}
; yosys-smt2-register state123 2
; yosys-smt2-wire state123 2
(define-fun |light_n state123| ((state |light_s|)) (_ BitVec 2) (|light#2| state))
; yosys-smt2-input up 1
; yosys-smt2-wire up 1
; yosys-smt2-witness {"offset": 0, "path": ["\\up"], "smtname": "up", "smtoffset": 0, "type": "input", "width": 1}
(define-fun |light_n up| ((state |light_s|)) Bool (|light#3| state))
(define-fun |light#4| ((state |light_s|)) (_ BitVec 2) (ite (|light#3| state) #b01 #b10)) ; $procmux$8_Y
(define-fun |light#5| ((state |light_s|)) Bool (= (|light#2| state) #b10)) ; $procmux$5_CMP
(define-fun |light#6| ((state |light_s|)) Bool (= (|light#2| state) #b01)) ; $procmux$6_CMP
(define-fun |light#7| ((state |light_s|)) Bool (not (or  (= ((_ extract 0 0) (|light#2| state)) #b1) (= ((_ extract 1 1) (|light#2| state)) #b1)))) ; $procmux$10_CMP
(define-fun |light#8| ((state |light_s|)) (_ BitVec 2) (ite (|light#7| state) (|light#4| state) (ite (|light#6| state) #b00 (ite (|light#5| state) #b00 (|light#2| state))))) ; $0\state123[1:0]
(define-fun |light#9| ((state |light_s|)) Bool (= (|light#2| state) #b10)) ; $procmux$12_CMP
(define-fun |light#10| ((state |light_s|)) Bool (= (|light#2| state) #b01)) ; $procmux$13_CMP
(define-fun |light#11| ((state |light_s|)) Bool (not (or  (= ((_ extract 0 0) (|light#2| state)) #b1) (= ((_ extract 1 1) (|light#2| state)) #b1)))) ; $procmux$16_CMP
(define-fun |light#12| ((state |light_s|)) (_ BitVec 1) (ite (|light#11| state) #b1 (ite (|light#10| state) #b0 (ite (|light#9| state) #b0 (|light#1| state))))) ; $0\l[0:0]
(define-fun |light_a| ((state |light_s|)) Bool true)
(define-fun |light_u| ((state |light_s|)) Bool true)
(define-fun |light_i| ((state |light_s|)) Bool (and
  (= (= ((_ extract 0 0) (|light#1| state)) #b1) false) ; light_out
  (= (|light#2| state) #b00) ; state123
))
(define-fun |light_h| ((state |light_s|)) Bool true)
(define-fun |light_t| ((state |light_s|) (next_state |light_s|)) Bool (and
  (= (|light#8| state) (|light#2| next_state)) ; $procdff$18 \state123
  (= (|light#12| state) (|light#1| next_state)) ; $procdff$17 \light_out
)) ; end of module light
; yosys-smt2-topmod light
; end of yosys output
